Fe  O
 1.
     4.3996739248552013    4.3996739248552030    0.0110178644701637
     2.2052732616477124    2.2052732616477124    4.4973918582957060
     2.1377562370573298   -2.1377562370573298    0.0000000000000000
Fe   O
 4  4
Direct
  0.0000153068847411  0.0000003919797962  0.0000000000000000
  0.5000097576629940  0.4999988543474387  0.5000000000000000
  0.5000173351283408  0.9999994672813060  0.0000000000000000
  0.0000079510625355  0.5000011854907029  0.5000000000000000
  0.2499935493079022  0.5000036053418100  0.0000000000000000
  0.7500521107753002  0.9999655377514145  0.5000000000000000
  0.7500240436051726  0.4999963321093759  0.0000000000000000
  0.2499799455730098  0.0000346256981700  0.5000000000000000

